<instance format="XCSP3" type="COP">
  <variables>
    <array id="s" note="Start time of operation j for job i" size="[10][10]"> 0..703 </array>
    <array id="e" note="End time of last operation of job i" size="[10]"> 0..703 </array>
    <array id="d" note="Duration of operation j for job i" size="[10][10]">
      <domain for="d[0][]"> 1 4 8 10 34 35 48 51 64 76 </domain>
      <domain for="d[1][]"> 9 12 39 44 46 67 71 90 93 98 </domain>
      <domain for="d[2][]"> 13 26 30 32 33 50 73 95 97 </domain>
      <domain for="d[3][]"> 2 3 19 22 34 36 47 63 64 78 </domain>
      <domain for="d[4][]"> 1 20 25 40 64 65 67 69 77 95 </domain>
      <domain for="d[5][]"> 14 19 22 24 45 64 66 73 85 88 </domain>
      <domain for="d[6][]"> 2 38 39 44 46 65 79 91 93 </domain>
      <domain for="d[7][]"> 9 29 33 37 60 69 72 87 91 94 </domain>
      <domain for="d[8][]"> 16 28 47 53 67 68 70 84 </domain>
      <domain for="d[9][]"> 7 10 34 41 42 50 64 67 89 </domain>
    </array>
    <array id="w" note="Which machine for operation j of job i" size="[10][10]"> 0..9 </array>
    <array id="sd" note="Start (dual) time of job i, machine k" size="[10][10]"> 0..703 </array>
  </variables>
  <constraints>
    <group>
      <intension> eq(%0,add(%1,%2)) </intension>
      <args> e[0] s[0][9] d[0][9] </args>
      <args> e[1] s[1][9] d[1][9] </args>
      <args> e[2] s[2][9] d[2][9] </args>
      <args> e[3] s[3][9] d[3][9] </args>
      <args> e[4] s[4][9] d[4][9] </args>
      <args> e[5] s[5][9] d[5][9] </args>
      <args> e[6] s[6][9] d[6][9] </args>
      <args> e[7] s[7][9] d[7][9] </args>
      <args> e[8] s[8][9] d[8][9] </args>
      <args> e[9] s[9][9] d[9][9] </args>
    </group>
    <group>
      <allDifferent> %... </allDifferent>
      <args> w[0][] </args>
      <args> w[1][] </args>
      <args> w[2][] </args>
      <args> w[3][] </args>
      <args> w[4][] </args>
      <args> w[5][] </args>
      <args> w[6][] </args>
      <args> w[7][] </args>
      <args> w[8][] </args>
      <args> w[9][] </args>
    </group>
    <block>
      <group>
        <extension>
          <list> %0 %1 </list>
          <supports> (0,48)(1,8)(2,4)(3,10)(4,35)(5,76)(6,64)(7,51)(8,1)(9,34) </supports>
        </extension>
        <args> w[0][0] d[0][0] </args>
        <args> w[0][1] d[0][1] </args>
        <args> w[0][2] d[0][2] </args>
        <args> w[0][3] d[0][3] </args>
        <args> w[0][4] d[0][4] </args>
        <args> w[0][5] d[0][5] </args>
        <args> w[0][6] d[0][6] </args>
        <args> w[0][7] d[0][7] </args>
        <args> w[0][8] d[0][8] </args>
        <args> w[0][9] d[0][9] </args>
      </group>
      <group>
        <extension>
          <list> %0 %1 </list>
          <supports> (0,39)(1,98)(2,46)(3,12)(4,71)(5,93)(6,90)(7,9)(8,44)(9,67) </supports>
        </extension>
        <args> w[1][0] d[1][0] </args>
        <args> w[1][1] d[1][1] </args>
        <args> w[1][2] d[1][2] </args>
        <args> w[1][3] d[1][3] </args>
        <args> w[1][4] d[1][4] </args>
        <args> w[1][5] d[1][5] </args>
        <args> w[1][6] d[1][6] </args>
        <args> w[1][7] d[1][7] </args>
        <args> w[1][8] d[1][8] </args>
        <args> w[1][9] d[1][9] </args>
      </group>
      <group>
        <extension>
          <list> %0 %1 </list>
          <supports> (0,33)(1,73)(2,26)(3,95)(4,30)(5,32)(6,50)(7,13)(8,32)(9,97) </supports>
        </extension>
        <args> w[2][0] d[2][0] </args>
        <args> w[2][1] d[2][1] </args>
        <args> w[2][2] d[2][2] </args>
        <args> w[2][3] d[2][3] </args>
        <args> w[2][4] d[2][4] </args>
        <args> w[2][5] d[2][5] </args>
        <args> w[2][6] d[2][6] </args>
        <args> w[2][7] d[2][7] </args>
        <args> w[2][8] d[2][8] </args>
        <args> w[2][9] d[2][9] </args>
      </group>
      <group>
        <extension>
          <list> %0 %1 </list>
          <supports> (0,22)(1,19)(2,78)(3,34)(4,47)(5,2)(6,63)(7,64)(8,36)(9,3) </supports>
        </extension>
        <args> w[3][0] d[3][0] </args>
        <args> w[3][1] d[3][1] </args>
        <args> w[3][2] d[3][2] </args>
        <args> w[3][3] d[3][3] </args>
        <args> w[3][4] d[3][4] </args>
        <args> w[3][5] d[3][5] </args>
        <args> w[3][6] d[3][6] </args>
        <args> w[3][7] d[3][7] </args>
        <args> w[3][8] d[3][8] </args>
        <args> w[3][9] d[3][9] </args>
      </group>
      <group>
        <extension>
          <list> %0 %1 </list>
          <supports> (0,1)(1,25)(2,40)(3,20)(4,64)(5,95)(6,77)(7,65)(8,69)(9,67) </supports>
        </extension>
        <args> w[4][0] d[4][0] </args>
        <args> w[4][1] d[4][1] </args>
        <args> w[4][2] d[4][2] </args>
        <args> w[4][3] d[4][3] </args>
        <args> w[4][4] d[4][4] </args>
        <args> w[4][5] d[4][5] </args>
        <args> w[4][6] d[4][6] </args>
        <args> w[4][7] d[4][7] </args>
        <args> w[4][8] d[4][8] </args>
        <args> w[4][9] d[4][9] </args>
      </group>
      <group>
        <extension>
          <list> %0 %1 </list>
          <supports> (0,64)(1,19)(2,88)(3,45)(4,73)(5,85)(6,24)(7,66)(8,14)(9,22) </supports>
        </extension>
        <args> w[5][0] d[5][0] </args>
        <args> w[5][1] d[5][1] </args>
        <args> w[5][2] d[5][2] </args>
        <args> w[5][3] d[5][3] </args>
        <args> w[5][4] d[5][4] </args>
        <args> w[5][5] d[5][5] </args>
        <args> w[5][6] d[5][6] </args>
        <args> w[5][7] d[5][7] </args>
        <args> w[5][8] d[5][8] </args>
        <args> w[5][9] d[5][9] </args>
      </group>
      <group>
        <extension>
          <list> %0 %1 </list>
          <supports> (0,38)(1,79)(2,46)(3,44)(4,91)(5,91)(6,39)(7,2)(8,93)(9,65) </supports>
        </extension>
        <args> w[6][0] d[6][0] </args>
        <args> w[6][1] d[6][1] </args>
        <args> w[6][2] d[6][2] </args>
        <args> w[6][3] d[6][3] </args>
        <args> w[6][4] d[6][4] </args>
        <args> w[6][5] d[6][5] </args>
        <args> w[6][6] d[6][6] </args>
        <args> w[6][7] d[6][7] </args>
        <args> w[6][8] d[6][8] </args>
        <args> w[6][9] d[6][9] </args>
      </group>
      <group>
        <extension>
          <list> %0 %1 </list>
          <supports> (0,29)(1,72)(2,69)(3,87)(4,37)(5,33)(6,94)(7,91)(8,60)(9,9) </supports>
        </extension>
        <args> w[7][0] d[7][0] </args>
        <args> w[7][1] d[7][1] </args>
        <args> w[7][2] d[7][2] </args>
        <args> w[7][3] d[7][3] </args>
        <args> w[7][4] d[7][4] </args>
        <args> w[7][5] d[7][5] </args>
        <args> w[7][6] d[7][6] </args>
        <args> w[7][7] d[7][7] </args>
        <args> w[7][8] d[7][8] </args>
        <args> w[7][9] d[7][9] </args>
      </group>
      <group>
        <extension>
          <list> %0 %1 </list>
          <supports> (0,53)(1,28)(2,67)(3,84)(4,16)(5,47)(6,70)(7,84)(8,68)(9,68) </supports>
        </extension>
        <args> w[8][0] d[8][0] </args>
        <args> w[8][1] d[8][1] </args>
        <args> w[8][2] d[8][2] </args>
        <args> w[8][3] d[8][3] </args>
        <args> w[8][4] d[8][4] </args>
        <args> w[8][5] d[8][5] </args>
        <args> w[8][6] d[8][6] </args>
        <args> w[8][7] d[8][7] </args>
        <args> w[8][8] d[8][8] </args>
        <args> w[8][9] d[8][9] </args>
      </group>
      <group>
        <extension>
          <list> %0 %1 </list>
          <supports> (0,89)(1,50)(2,64)(3,41)(4,42)(5,42)(6,7)(7,10)(8,67)(9,34) </supports>
        </extension>
        <args> w[9][0] d[9][0] </args>
        <args> w[9][1] d[9][1] </args>
        <args> w[9][2] d[9][2] </args>
        <args> w[9][3] d[9][3] </args>
        <args> w[9][4] d[9][4] </args>
        <args> w[9][5] d[9][5] </args>
        <args> w[9][6] d[9][6] </args>
        <args> w[9][7] d[9][7] </args>
        <args> w[9][8] d[9][8] </args>
        <args> w[9][9] d[9][9] </args>
      </group>
    </block>
    <group>
      <intension> le(add(%0,%1),%2) </intension>
      <args> s[0][0] d[0][0] s[0][1] </args>
      <args> s[0][1] d[0][1] s[0][2] </args>
      <args> s[0][2] d[0][2] s[0][3] </args>
      <args> s[0][3] d[0][3] s[0][4] </args>
      <args> s[0][4] d[0][4] s[0][5] </args>
      <args> s[0][5] d[0][5] s[0][6] </args>
      <args> s[0][6] d[0][6] s[0][7] </args>
      <args> s[0][7] d[0][7] s[0][8] </args>
      <args> s[0][8] d[0][8] s[0][9] </args>
      <args> s[1][0] d[1][0] s[1][1] </args>
      <args> s[1][1] d[1][1] s[1][2] </args>
      <args> s[1][2] d[1][2] s[1][3] </args>
      <args> s[1][3] d[1][3] s[1][4] </args>
      <args> s[1][4] d[1][4] s[1][5] </args>
      <args> s[1][5] d[1][5] s[1][6] </args>
      <args> s[1][6] d[1][6] s[1][7] </args>
      <args> s[1][7] d[1][7] s[1][8] </args>
      <args> s[1][8] d[1][8] s[1][9] </args>
      <args> s[2][0] d[2][0] s[2][1] </args>
      <args> s[2][1] d[2][1] s[2][2] </args>
      <args> s[2][2] d[2][2] s[2][3] </args>
      <args> s[2][3] d[2][3] s[2][4] </args>
      <args> s[2][4] d[2][4] s[2][5] </args>
      <args> s[2][5] d[2][5] s[2][6] </args>
      <args> s[2][6] d[2][6] s[2][7] </args>
      <args> s[2][7] d[2][7] s[2][8] </args>
      <args> s[2][8] d[2][8] s[2][9] </args>
      <args> s[3][0] d[3][0] s[3][1] </args>
      <args> s[3][1] d[3][1] s[3][2] </args>
      <args> s[3][2] d[3][2] s[3][3] </args>
      <args> s[3][3] d[3][3] s[3][4] </args>
      <args> s[3][4] d[3][4] s[3][5] </args>
      <args> s[3][5] d[3][5] s[3][6] </args>
      <args> s[3][6] d[3][6] s[3][7] </args>
      <args> s[3][7] d[3][7] s[3][8] </args>
      <args> s[3][8] d[3][8] s[3][9] </args>
      <args> s[4][0] d[4][0] s[4][1] </args>
      <args> s[4][1] d[4][1] s[4][2] </args>
      <args> s[4][2] d[4][2] s[4][3] </args>
      <args> s[4][3] d[4][3] s[4][4] </args>
      <args> s[4][4] d[4][4] s[4][5] </args>
      <args> s[4][5] d[4][5] s[4][6] </args>
      <args> s[4][6] d[4][6] s[4][7] </args>
      <args> s[4][7] d[4][7] s[4][8] </args>
      <args> s[4][8] d[4][8] s[4][9] </args>
      <args> s[5][0] d[5][0] s[5][1] </args>
      <args> s[5][1] d[5][1] s[5][2] </args>
      <args> s[5][2] d[5][2] s[5][3] </args>
      <args> s[5][3] d[5][3] s[5][4] </args>
      <args> s[5][4] d[5][4] s[5][5] </args>
      <args> s[5][5] d[5][5] s[5][6] </args>
      <args> s[5][6] d[5][6] s[5][7] </args>
      <args> s[5][7] d[5][7] s[5][8] </args>
      <args> s[5][8] d[5][8] s[5][9] </args>
      <args> s[6][0] d[6][0] s[6][1] </args>
      <args> s[6][1] d[6][1] s[6][2] </args>
      <args> s[6][2] d[6][2] s[6][3] </args>
      <args> s[6][3] d[6][3] s[6][4] </args>
      <args> s[6][4] d[6][4] s[6][5] </args>
      <args> s[6][5] d[6][5] s[6][6] </args>
      <args> s[6][6] d[6][6] s[6][7] </args>
      <args> s[6][7] d[6][7] s[6][8] </args>
      <args> s[6][8] d[6][8] s[6][9] </args>
      <args> s[7][0] d[7][0] s[7][1] </args>
      <args> s[7][1] d[7][1] s[7][2] </args>
      <args> s[7][2] d[7][2] s[7][3] </args>
      <args> s[7][3] d[7][3] s[7][4] </args>
      <args> s[7][4] d[7][4] s[7][5] </args>
      <args> s[7][5] d[7][5] s[7][6] </args>
      <args> s[7][6] d[7][6] s[7][7] </args>
      <args> s[7][7] d[7][7] s[7][8] </args>
      <args> s[7][8] d[7][8] s[7][9] </args>
      <args> s[8][0] d[8][0] s[8][1] </args>
      <args> s[8][1] d[8][1] s[8][2] </args>
      <args> s[8][2] d[8][2] s[8][3] </args>
      <args> s[8][3] d[8][3] s[8][4] </args>
      <args> s[8][4] d[8][4] s[8][5] </args>
      <args> s[8][5] d[8][5] s[8][6] </args>
      <args> s[8][6] d[8][6] s[8][7] </args>
      <args> s[8][7] d[8][7] s[8][8] </args>
      <args> s[8][8] d[8][8] s[8][9] </args>
      <args> s[9][0] d[9][0] s[9][1] </args>
      <args> s[9][1] d[9][1] s[9][2] </args>
      <args> s[9][2] d[9][2] s[9][3] </args>
      <args> s[9][3] d[9][3] s[9][4] </args>
      <args> s[9][4] d[9][4] s[9][5] </args>
      <args> s[9][5] d[9][5] s[9][6] </args>
      <args> s[9][6] d[9][6] s[9][7] </args>
      <args> s[9][7] d[9][7] s[9][8] </args>
      <args> s[9][8] d[9][8] s[9][9] </args>
    </group>
    <block class="channeling">
      <group>
        <element>
          <list> sd[0][] </list>
          <index> %0 </index>
          <value> %1 </value>
        </element>
        <args> w[0][0] s[0][0] </args>
        <args> w[0][1] s[0][1] </args>
        <args> w[0][2] s[0][2] </args>
        <args> w[0][3] s[0][3] </args>
        <args> w[0][4] s[0][4] </args>
        <args> w[0][5] s[0][5] </args>
        <args> w[0][6] s[0][6] </args>
        <args> w[0][7] s[0][7] </args>
        <args> w[0][8] s[0][8] </args>
        <args> w[0][9] s[0][9] </args>
      </group>
      <group>
        <element>
          <list> sd[1][] </list>
          <index> %0 </index>
          <value> %1 </value>
        </element>
        <args> w[1][0] s[1][0] </args>
        <args> w[1][1] s[1][1] </args>
        <args> w[1][2] s[1][2] </args>
        <args> w[1][3] s[1][3] </args>
        <args> w[1][4] s[1][4] </args>
        <args> w[1][5] s[1][5] </args>
        <args> w[1][6] s[1][6] </args>
        <args> w[1][7] s[1][7] </args>
        <args> w[1][8] s[1][8] </args>
        <args> w[1][9] s[1][9] </args>
      </group>
      <group>
        <element>
          <list> sd[2][] </list>
          <index> %0 </index>
          <value> %1 </value>
        </element>
        <args> w[2][0] s[2][0] </args>
        <args> w[2][1] s[2][1] </args>
        <args> w[2][2] s[2][2] </args>
        <args> w[2][3] s[2][3] </args>
        <args> w[2][4] s[2][4] </args>
        <args> w[2][5] s[2][5] </args>
        <args> w[2][6] s[2][6] </args>
        <args> w[2][7] s[2][7] </args>
        <args> w[2][8] s[2][8] </args>
        <args> w[2][9] s[2][9] </args>
      </group>
      <group>
        <element>
          <list> sd[3][] </list>
          <index> %0 </index>
          <value> %1 </value>
        </element>
        <args> w[3][0] s[3][0] </args>
        <args> w[3][1] s[3][1] </args>
        <args> w[3][2] s[3][2] </args>
        <args> w[3][3] s[3][3] </args>
        <args> w[3][4] s[3][4] </args>
        <args> w[3][5] s[3][5] </args>
        <args> w[3][6] s[3][6] </args>
        <args> w[3][7] s[3][7] </args>
        <args> w[3][8] s[3][8] </args>
        <args> w[3][9] s[3][9] </args>
      </group>
      <group>
        <element>
          <list> sd[4][] </list>
          <index> %0 </index>
          <value> %1 </value>
        </element>
        <args> w[4][0] s[4][0] </args>
        <args> w[4][1] s[4][1] </args>
        <args> w[4][2] s[4][2] </args>
        <args> w[4][3] s[4][3] </args>
        <args> w[4][4] s[4][4] </args>
        <args> w[4][5] s[4][5] </args>
        <args> w[4][6] s[4][6] </args>
        <args> w[4][7] s[4][7] </args>
        <args> w[4][8] s[4][8] </args>
        <args> w[4][9] s[4][9] </args>
      </group>
      <group>
        <element>
          <list> sd[5][] </list>
          <index> %0 </index>
          <value> %1 </value>
        </element>
        <args> w[5][0] s[5][0] </args>
        <args> w[5][1] s[5][1] </args>
        <args> w[5][2] s[5][2] </args>
        <args> w[5][3] s[5][3] </args>
        <args> w[5][4] s[5][4] </args>
        <args> w[5][5] s[5][5] </args>
        <args> w[5][6] s[5][6] </args>
        <args> w[5][7] s[5][7] </args>
        <args> w[5][8] s[5][8] </args>
        <args> w[5][9] s[5][9] </args>
      </group>
      <group>
        <element>
          <list> sd[6][] </list>
          <index> %0 </index>
          <value> %1 </value>
        </element>
        <args> w[6][0] s[6][0] </args>
        <args> w[6][1] s[6][1] </args>
        <args> w[6][2] s[6][2] </args>
        <args> w[6][3] s[6][3] </args>
        <args> w[6][4] s[6][4] </args>
        <args> w[6][5] s[6][5] </args>
        <args> w[6][6] s[6][6] </args>
        <args> w[6][7] s[6][7] </args>
        <args> w[6][8] s[6][8] </args>
        <args> w[6][9] s[6][9] </args>
      </group>
      <group>
        <element>
          <list> sd[7][] </list>
          <index> %0 </index>
          <value> %1 </value>
        </element>
        <args> w[7][0] s[7][0] </args>
        <args> w[7][1] s[7][1] </args>
        <args> w[7][2] s[7][2] </args>
        <args> w[7][3] s[7][3] </args>
        <args> w[7][4] s[7][4] </args>
        <args> w[7][5] s[7][5] </args>
        <args> w[7][6] s[7][6] </args>
        <args> w[7][7] s[7][7] </args>
        <args> w[7][8] s[7][8] </args>
        <args> w[7][9] s[7][9] </args>
      </group>
      <group>
        <element>
          <list> sd[8][] </list>
          <index> %0 </index>
          <value> %1 </value>
        </element>
        <args> w[8][0] s[8][0] </args>
        <args> w[8][1] s[8][1] </args>
        <args> w[8][2] s[8][2] </args>
        <args> w[8][3] s[8][3] </args>
        <args> w[8][4] s[8][4] </args>
        <args> w[8][5] s[8][5] </args>
        <args> w[8][6] s[8][6] </args>
        <args> w[8][7] s[8][7] </args>
        <args> w[8][8] s[8][8] </args>
        <args> w[8][9] s[8][9] </args>
      </group>
      <group>
        <element>
          <list> sd[9][] </list>
          <index> %0 </index>
          <value> %1 </value>
        </element>
        <args> w[9][0] s[9][0] </args>
        <args> w[9][1] s[9][1] </args>
        <args> w[9][2] s[9][2] </args>
        <args> w[9][3] s[9][3] </args>
        <args> w[9][4] s[9][4] </args>
        <args> w[9][5] s[9][5] </args>
        <args> w[9][6] s[9][6] </args>
        <args> w[9][7] s[9][7] </args>
        <args> w[9][8] s[9][8] </args>
        <args> w[9][9] s[9][9] </args>
      </group>
    </block>
    <block>
      <noOverlap>
        <origins> sd[][0] </origins>
        <lengths> 48 39 33 22 1 64 38 29 53 89 </lengths>
      </noOverlap>
      <noOverlap>
        <origins> sd[][1] </origins>
        <lengths> 8 98 73 19 25 19 79 72 28 50 </lengths>
      </noOverlap>
      <noOverlap>
        <origins> sd[][2] </origins>
        <lengths> 4 46 26 78 40 88 46 69 67 64 </lengths>
      </noOverlap>
      <noOverlap>
        <origins> sd[][3] </origins>
        <lengths> 10 12 95 34 20 45 44 87 84 41 </lengths>
      </noOverlap>
      <noOverlap>
        <origins> sd[][4] </origins>
        <lengths> 35 71 30 47 64 73 91 37 16 42 </lengths>
      </noOverlap>
      <noOverlap>
        <origins> sd[][5] </origins>
        <lengths> 76 93 32 2 95 85 91 33 47 42 </lengths>
      </noOverlap>
      <noOverlap>
        <origins> sd[][6] </origins>
        <lengths> 64 90 50 63 77 24 39 94 70 7 </lengths>
      </noOverlap>
      <noOverlap>
        <origins> sd[][7] </origins>
        <lengths> 51 9 13 64 65 66 2 91 84 10 </lengths>
      </noOverlap>
      <noOverlap>
        <origins> sd[][8] </origins>
        <lengths> 1 44 32 36 69 14 93 60 68 67 </lengths>
      </noOverlap>
      <noOverlap>
        <origins> sd[][9] </origins>
        <lengths> 34 67 97 3 67 22 65 9 68 34 </lengths>
      </noOverlap>
    </block>
    <group class="redundantConstraints">
      <intension> ge(%0,%1) </intension>
      <args> e[0] 331 </args>
      <args> e[1] 569 </args>
      <args> e[2] 481 </args>
      <args> e[3] 368 </args>
      <args> e[4] 523 </args>
      <args> e[5] 500 </args>
      <args> e[6] 588 </args>
      <args> e[7] 581 </args>
      <args> e[8] 585 </args>
      <args> e[9] 446 </args>
    </group>
  </constraints>
  <objectives>
    <minimize type="maximum"> e[] </minimize>
  </objectives>
</instance>
